FILENAME:   /home/mcs001/s132664/testsets/IP/miplib2017/neos-3759587-noosa.mps.gz
SETTINGS:   settings_final_nosym_norestarts
TIMELIMIT:  7200
OUTPUTNAME: final_miplib_symretope_if_extended_generating_set_cpx_v802__settings_final_nosym_norestarts__1__
BINNAME:    bin/sbcs.linux.x86_64.gnu.opt.cpx
BASENAME:   neos-3759587-noosa.mps.gz
SEED:       1
@01 /home/mcs001/s132664/testsets/IP/miplib2017/neos-3759587-noosa.mps.gz ===========
@02 neos-3759587-noosa.mps.gz
@03 1686649796
SCIP version 8.0.2 [precision: 8 byte] [memory: block] [mode: optimized] [LP solver: CPLEX 20.1.0.0] [GitHash: 5f0473c]
Copyright (C) 2002-2022 Konrad-Zuse-Zentrum fuer Informationstechnik Berlin (ZIB)

Symretope propagation methods - (c) Jasper van Doornmalen, Christopher Hojny.
[GitHash: 2fd0484]

reading parameter file <../settings/settings_final_nosym_norestarts.set> ...

Changed settings:
limits/time = 7200
limits/restarts = 0
misc/usesymmetry = 0
randomization/randomseedshift = 1
constraints/orbisack/sepafreq = -1
constraints/symresack/sepafreq = -1
propagating/symmetry/detectsubgroups = FALSE
propagating/symmetry/usesymretopes = FALSE
propagating/symmetry/relabelsymretopes = 0
propagating/symmetry/ofsymcomptiming = 0
constraints/symretope/sepafreq = -1
constraints/symretope/peek = FALSE


solving problem ...

original problem has 27029 variables (4289 bin, 0 int, 0 impl, 22740 cont) and 72104 constraints
presolving:
(round 1, exhaustive) 0 del vars, 0 del conss, 0 add conss, 0 chg bounds, 12 chg sides, 784 chg coeffs, 46032 upgd conss, 0 impls, 348 clqs
   (11.0s) probing: 1000/4289 (23.3%) - 0 fixings, 20 aggregations, 850551 implications, 0 bound changes
   (14.3s) probing: 1502/4289 (35.0%) - 0 fixings, 20 aggregations, 1068166 implications, 0 bound changes
   (14.3s) probing aborted: 1000/1000 successive useless probings
presolving (2 rounds: 2 fast, 2 medium, 2 exhaustive):
 20 deleted vars, 4 deleted constraints, 20 added constraints, 0 tightened bounds, 0 added holes, 12 changed sides, 792 changed coefficients
 1080263 implications, 33691 cliques
presolved problem has 27009 variables (4269 bin, 0 int, 0 impl, 22740 cont) and 72120 constraints
  45480 constraints of type <varbound>
     48 constraints of type <knapsack>
    348 constraints of type <setppc>
  26072 constraints of type <linear>
    172 constraints of type <logicor>
Presolving Time: 14.97

 time | node  | left  |LP iter|LP it/n|mem/heur|mdpt |vars |cons |rows |cuts |sepa|confs|strbr|  dualbound   | primalbound  |  gap   | compl. 
 16.7s|     1 |     0 |   681 |     - |   469M |   0 |  27k|  72k|  72k|   0 |  0 |  49 |   0 | 4.833447e+01 |      --      |    Inf | unknown
 18.2s|     1 |     0 |  1648 |     - |   486M |   0 |  27k|  72k|  72k|  29 |  1 |  50 |   0 | 4.833447e+01 |      --      |    Inf | unknown
 18.4s|     1 |     0 |  1655 |     - |   494M |   0 |  27k|  72k|  72k|  33 |  2 |  50 |   0 | 4.833447e+01 |      --      |    Inf | unknown
 18.7s|     1 |     0 |  1667 |     - |   502M |   0 |  27k|  72k|  72k|  34 |  3 |  51 |   0 | 4.833447e+01 |      --      |    Inf | unknown
 18.9s|     1 |     0 |  1690 |     - |   509M |   0 |  27k|  72k|  72k|  43 |  4 |  52 |   0 | 4.833447e+01 |      --      |    Inf | unknown
 19.1s|     1 |     0 |  1721 |     - |   517M |   0 |  27k|  72k|  72k|  50 |  5 |  52 |   0 | 4.833447e+01 |      --      |    Inf | unknown
 19.3s|     1 |     0 |  1738 |     - |   525M |   0 |  27k|  72k|  72k|  58 |  6 |  54 |   0 | 4.833447e+01 |      --      |    Inf | unknown
 19.5s|     1 |     0 |  1773 |     - |   533M |   0 |  27k|  72k|  72k|  65 |  7 |  55 |   0 | 4.833447e+01 |      --      |    Inf | unknown
 19.7s|     1 |     0 |  1798 |     - |   540M |   0 |  27k|  72k|  72k|  72 |  8 |  56 |   0 | 4.833447e+01 |      --      |    Inf | unknown
 20.0s|     1 |     0 |  1837 |     - |   548M |   0 |  27k|  72k|  72k|  82 |  9 |  58 |   0 | 4.833447e+01 |      --      |    Inf | unknown
 20.2s|     1 |     0 |  1876 |     - |   557M |   0 |  27k|  72k|  72k|  87 | 10 |  59 |   0 | 4.833447e+01 |      --      |    Inf | unknown
 20.4s|     1 |     0 |  1897 |     - |   565M |   0 |  27k|  72k|  72k|  95 | 11 |  59 |   0 | 4.833447e+01 |      --      |    Inf | unknown
d20.5s|     1 |     0 |  1938 |     - |farkasdi|   0 |  27k|  72k|  72k|   0 | 11 |  60 |   0 | 4.833447e+01 | 4.833447e+01 |   0.00%| unknown
 20.5s|     1 |     0 |  1938 |     - |   566M |   0 |  27k|  72k|  72k|  95 | 11 |  60 |   0 | 4.833447e+01 | 4.833447e+01 |   0.00%| unknown

SCIP Status        : problem is solved [optimal solution found]
Solving Time (sec) : 20.52
Solving Nodes      : 1
Primal Bound       : +4.83344677694000e+01 (1 solutions)
Dual Bound         : +4.83344677694000e+01
Gap                : 0.00 %
SCIP Status        : problem is solved [optimal solution found]
Total Time         :      20.93
  solving          :      20.52
  presolving       :      14.97 (included in solving)
  reading          :       0.41
  copying          :       0.00 (0 times copied the problem)
Original Problem   :
  Problem name     : neos-3759587-noosa
  Variables        : 27029 (4289 binary, 0 integer, 0 implicit integer, 22740 continuous)
  Constraints      : 72104 initial, 72104 maximal
  Objective        : minimize, 1137 non-zeros (abs.min = 0.00509056, abs.max = 5.91707)
Presolved Problem  :
  Problem name     : t_neos-3759587-noosa
  Variables        : 27009 (4269 binary, 0 integer, 0 implicit integer, 22740 continuous)
  Constraints      : 72120 initial, 72180 maximal
  Objective        : minimize, 1137 non-zeros (abs.min = 0.00509056, abs.max = 5.91707)
  Nonzeros         : 318193 constraint, 70499 clique table
Presolvers         :   ExecTime  SetupTime  Calls  FixedVars   AggrVars   ChgTypes  ChgBounds   AddHoles    DelCons    AddCons   ChgSides   ChgCoefs
  boundshift       :       0.00       0.00      0          0          0          0          0          0          0          0          0          0
  convertinttobin  :       0.00       0.00      0          0          0          0          0          0          0          0          0          0
  domcol           :       0.08       0.00      1          0          0          0          0          0          0          0          0          0
  dualagg          :       0.00       0.00      0          0          0          0          0          0          0          0          0          0
  dualcomp         :       0.07       0.00      1          0          0          0          0          0          0          0          0          0
  dualinfer        :       0.00       0.00      0          0          0          0          0          0          0          0          0          0
  dualsparsify     :       0.85       0.00      1          0          0          0          0          0          0          0          0          0
  gateextraction   :       0.00       0.00      1          0          0          0          0          0          0          0          0          0
  implics          :       0.00       0.00      2          0          0          0          0          0          0          0          0          0
  inttobinary      :       0.00       0.00      0          0          0          0          0          0          0          0          0          0
  qpkktref         :       0.00       0.00      0          0          0          0          0          0          0          0          0          0
  redvub           :       0.00       0.00      0          0          0          0          0          0          0          0          0          0
  sparsify         :       0.19       0.00      1          0          0          0          0          0          0          0          0          0
  stuffing         :       0.00       0.00      0          0          0          0          0          0          0          0          0          0
  trivial          :       0.00       0.00      2          0          0          0          0          0          0          0          0          0
  tworowbnd        :       0.00       0.00      0          0          0          0          0          0          0          0          0          0
  dualfix          :       0.00       0.00      2          0          0          0          0          0          0          0          0          0
  genvbounds       :       0.00       0.00      0          0          0          0          0          0          0          0          0          0
  probing          :      13.16       0.00      1          0         20          0          0          0          0          0          0          0
  pseudoobj        :       0.00       0.00      0          0          0          0          0          0          0          0          0          0
  symmetry         :       0.00       0.00      0          0          0          0          0          0          0          0          0          0
  vbounds          :       0.00       0.00      1          0          0          0          0          0          0          0          0          0
  varbound         :       0.05       0.00      2          0          0          0          0          0          0          0          0          0
  knapsack         :       0.00       0.00      3          0          0          0          0          0          4         20          0          8
  setppc           :       0.00       0.00      3          0          0          0          0          0          0          0          0          0
  linear           :       0.36       0.09      4          0          0          0          0          0          0          0         12        784
  logicor          :       0.00       0.00      3          0          0          0          0          0          0          0          0          0
  benders          :       0.00       0.00      0          0          0          0          0          0          0          0          0          0
  components       :       0.06       0.00      1          0          0          0          0          0          0          0          0          0
  root node        :          -          -      -          0          -          -          0          -          -          -          -          -
Constraints        :     Number  MaxNumber  #Separate #Propagate    #EnfoLP    #EnfoRelax  #EnfoPS    #Check   #ResProp    Cutoffs    DomReds       Cuts    Applied      Conss   Children
  benderslp        :          0          0          0          0          0          0          0         13          0          0          0          0          0          0          0
  integral         :          0          0          0          0          0          0          0         13          0          0          0          0          0          0          0
  varbound         :      45480      45480         11       7750          0          0          0          7       2361          0          0          0          0          0          0
  knapsack         :         48         48         11       7750          0          0          0          7          0          2          0          0          0          0          0
  setppc           :        348+       352         11       7748          0          0          0          6        257          9          0          3          0          0          0
  linear           :      26072      26072         11       7739          0          0          0          1        948         17          0          0          0          0          0
  logicor          :        172+       228         11       3211          0          0          0          1          9          1          0          5          2          0          0
  benders          :          0          0          0          0          0          0          0          2          0          0          0          0          0          0          0
  countsols        :          0          0          0          0          0          0          0          2          0          0          0          0          0          0          0
  components       :          0          0          0          0          0          0          0          0          0          0          0          0          0          0          0
Constraint Timings :  TotalTime  SetupTime   Separate  Propagate     EnfoLP     EnfoPS     EnfoRelax   Check    ResProp    SB-Prop
  benderslp        :       0.00       0.00       0.00       0.00       0.00       0.00       0.00       0.00       0.00       0.00
  integral         :       0.00       0.00       0.00       0.00       0.00       0.00       0.00       0.00       0.00       0.00
  varbound         :       1.39       0.00       0.18       1.15       0.00       0.00       0.00       0.06       0.00       0.00
  knapsack         :       0.05       0.00       0.00       0.05       0.00       0.00       0.00       0.00       0.00       0.00
  setppc           :       0.06       0.00       0.00       0.06       0.00       0.00       0.00       0.00       0.00       0.00
  linear           :       3.90       0.09       0.08       3.72       0.00       0.00       0.00       0.00       0.00       0.00
  logicor          :       0.01       0.00       0.00       0.01       0.00       0.00       0.00       0.00       0.00       0.00
  benders          :       0.00       0.00       0.00       0.00       0.00       0.00       0.00       0.00       0.00       0.00
  countsols        :       0.00       0.00       0.00       0.00       0.00       0.00       0.00       0.00       0.00       0.00
  components       :       0.00       0.00       0.00       0.00       0.00       0.00       0.00       0.00       0.00       0.00
Propagators        : #Propagate   #ResProp    Cutoffs    DomReds
  dualfix          :          1          0          0          0
  genvbounds       :          0          0          0          0
  nlobbt           :          0          0          0          0
  obbt             :          0          0          0          0
  probing          :          0          0          0          0
  pseudoobj        :         14          0          0          0
  redcost          :         13          0          0          0
  rootredcost      :          0          0          0          0
  symmetry         :          0          0          0          0
  vbounds          :        796          0          0          0
Propagator Timings :  TotalTime  SetupTime   Presolve  Propagate    ResProp    SB-Prop
  dualfix          :       0.00       0.00       0.00       0.00       0.00       0.00
  genvbounds       :       0.00       0.00       0.00       0.00       0.00       0.00
  nlobbt           :       0.00       0.00       0.00       0.00       0.00       0.00
  obbt             :       0.00       0.00       0.00       0.00       0.00       0.00
  probing          :      13.16       0.00      13.16       0.00       0.00       0.00
  pseudoobj        :       0.02       0.00       0.00       0.02       0.00       0.00
  redcost          :       0.03       0.00       0.00       0.03       0.00       0.00
  rootredcost      :       0.00       0.00       0.00       0.00       0.00       0.00
  symmetry         :       0.00       0.00       0.00       0.00       0.00       0.00
  vbounds          :       0.15       0.00       0.00       0.15       0.00       0.00
Conflict Analysis  :       Time      Calls    Success    DomReds  Conflicts   Literals    Reconvs ReconvLits   Dualrays   Nonzeros   LP Iters   (pool size: [10000,10000])
  propagation      :       0.01         17         17          -         49       47.3         22        3.1          -          -          -
  infeasible LP    :       0.00          0          0          -          0        0.0          0        0.0          0        0.0          0
  bound exceed. LP :       0.00          0          0          -          0        0.0          0        0.0          0        0.0          0
  strong branching :       0.00          0          0          -          0        0.0          0        0.0          -          -          0
  pseudo solution  :       0.00          0          0          -          0        0.0          0        0.0          -          -          -
  applied globally :       0.00          -          -          0         60       21.7          -          -          0          -          -
  applied locally  :          -          -          -          0          0        0.0          -          -          0          -          -
Separators         :   ExecTime  SetupTime      Calls  RootCalls    Cutoffs    DomReds  FoundCuts ViaPoolAdd  DirectAdd    Applied ViaPoolApp  DirectApp      Conss
  cut pool         :       0.01          -         21         21          -          -       1356        764          -          -          -          -          -    (maximal pool size:       1356)
  aggregation      :       0.62       0.00         11         11          0          0         92         43          0         15         15          0          0
  > cmir           :          -          -          -          -          -          -          -         28          0         14         14          0          -
  > flowcover      :          -          -          -          -          -          -          -          0          0          0          0          0          -
  > knapsackcover  :          -          -          -          -          -          -          -         15          0          1          1          0          -
  cgmip            :       0.00       0.00          0          0          0          0          0          0          0          0          0          0          0
  clique           :       0.12       0.00         11         11          0          0         81         85          0         18         18          0          0
  closecuts        :       0.00       0.00          0          0          0          0          0          0          0          0          0          0          0
  convexproj       :       0.00       0.00          0          0          0          0          0          0          0          0          0          0          0
  disjunctive      :       0.00       0.00          0          0          0          0          0          0          0          0          0          0          0
  eccuts           :       0.00       0.00          0          0          0          0          0          0          0          0          0          0          0
  gauge            :       0.00       0.00          0          0          0          0          0          0          0          0          0          0          0
  gomory           :       0.18       0.00         10         10          0          0        355         45          0          7          7          0          0
  > gomorymi       :          -          -          -          -          -          -          -         45          0          7          7          0          -
  > strongcg       :          -          -          -          -          -          -          -          0          0          0          0          0          -
  impliedbounds    :       0.03       0.00         11         11          0          0        792        587          0         51         51          0          0
  interminor       :       0.00       0.00          0          0          0          0          0          0          0          0          0          0          0
  intobj           :       0.00       0.00          0          0          0          0          0          0          0          0          0          0          0
  mcf              :       0.15       0.00          1          1          0          0          0          0          0          0          0          0          0
  minor            :       0.00       0.00          0          0          0          0          0          0          0          0          0          0          0
  mixing           :       0.03       0.00         11         11          0          0          0          0          0          0          0          0          0
  oddcycle         :       0.00       0.00          0          0          0          0          0          0          0          0          0          0          0
  rapidlearning    :       0.00       0.00          0          0          0          0          0          0          0          0          0          0          0
  rlt              :       0.00       0.00         10         10          0          0          0          0          0          0          0          0          0
  zerohalf         :       0.67       0.00         11         11          0          0         36          4          0          2          2          0          0
Cutselectors       :   ExecTime  SetupTime      Calls  RootCalls   Selected     Forced   Filtered  RootSelec   RootForc   RootFilt 
  hybrid           :       0.00       0.00         11         11         95          0        677         95          0        677
Pricers            :   ExecTime  SetupTime      Calls       Vars
  problem variables:       0.00          -          0          0
Branching Rules    :   ExecTime  SetupTime   BranchLP  BranchExt   BranchPS    Cutoffs    DomReds       Cuts      Conss   Children
  allfullstrong    :       0.00       0.00          0          0          0          0          0          0          0          0
  cloud            :       0.00       0.00          0          0          0          0          0          0          0          0
  distribution     :       0.00       0.00          0          0          0          0          0          0          0          0
  fullstrong       :       0.00       0.00          0          0          0          0          0          0          0          0
  inference        :       0.00       0.00          0          0          0          0          0          0          0          0
  leastinf         :       0.00       0.00          0          0          0          0          0          0          0          0
  lookahead        :       0.00       0.00          0          0          0          0          0          0          0          0
  mostinf          :       0.00       0.00          0          0          0          0          0          0          0          0
  multaggr         :       0.00       0.00          0          0          0          0          0          0          0          0
  nodereopt        :       0.00       0.00          0          0          0          0          0          0          0          0
  pscost           :       0.00       0.00          0          0          0          0          0          0          0          0
  random           :       0.00       0.00          0          0          0          0          0          0          0          0
  relpscost        :       0.00       0.00          0          0          0          0          0          0          0          0
  vanillafullstrong:       0.00       0.00          0          0          0          0          0          0          0          0
Primal Heuristics  :   ExecTime  SetupTime      Calls      Found       Best
  LP solutions     :       0.00          -          -          0          0
  relax solutions  :       0.00          -          -          0          0
  pseudo solutions :       0.00          -          -          0          0
  strong branching :       0.00          -          -          0          0
  actconsdiving    :       0.00       0.00          0          0          0
  adaptivediving   :       0.00       0.00          0          0          0
  alns             :       0.00       0.00          0          0          0
  bound            :       0.00       0.00          0          0          0
  clique           :       0.38       0.00          1          0          0
  coefdiving       :       0.00       0.00          0          0          0
  completesol      :       0.00       0.00          0          0          0
  conflictdiving   :       0.00       0.00          0          0          0
  crossover        :       0.00       0.00          0          0          0
  dins             :       0.00       0.00          0          0          0
  distributiondivin:       0.00       0.00          0          0          0
  dps              :       0.00       0.00          0          0          0
  dualval          :       0.00       0.00          0          0          0
  farkasdiving     :       0.10       0.00          1          1          1
  feaspump         :       0.96       0.00          1          0          0
  fixandinfer      :       0.00       0.00          0          0          0
  fracdiving       :       0.00       0.00          0          0          0
  gins             :       0.00       0.00          0          0          0
  guideddiving     :       0.00       0.00          0          0          0
  indicator        :       0.00       0.00          0          0          0
  intdiving        :       0.00       0.00          0          0          0
  intshifting      :       0.02       0.00          1          0          0
  linesearchdiving :       0.00       0.00          0          0          0
  localbranching   :       0.00       0.00          0          0          0
  locks            :       0.15       0.00          1          0          0
  lpface           :       0.00       0.00          0          0          0
  mpec             :       0.00       0.00          0          0          0
  multistart       :       0.00       0.00          0          0          0
  mutation         :       0.00       0.00          0          0          0
  nlpdiving        :       0.00       0.00          0          0          0
  objpscostdiving  :       0.00       0.00          0          0          0
  octane           :       0.00       0.00          0          0          0
  ofins            :       0.00       0.00          0          0          0
  oneopt           :       0.00       0.00          0          0          0
  padm             :       0.00       0.00          0          0          0
  proximity        :       0.00       0.00          0          0          0
  pscostdiving     :       0.00       0.00          0          0          0
  randrounding     :       0.07       0.00         12          0          0
  rens             :       0.00       0.00          0          0          0
  reoptsols        :       0.00       0.00          0          0          0
  repair           :       0.00       0.00          0          0          0
  rins             :       0.00       0.00          0          0          0
  rootsoldiving    :       0.00       0.00          0          0          0
  rounding         :       0.03       0.00         12          0          0
  shiftandpropagate:       0.23       0.00          1          0          0
  shifting         :       0.06       0.00         12          0          0
  simplerounding   :       0.00       0.00          0          0          0
  subnlp           :       0.00       0.00          0          0          0
  trivial          :       0.13       0.00          2          0          0
  trivialnegation  :       0.00       0.00          0          0          0
  trustregion      :       0.00       0.00          0          0          0
  trysol           :       0.00       0.00          0          0          0
  twoopt           :       0.00       0.00          0          0          0
  undercover       :       0.00       0.00          0          0          0
  vbounds          :       0.02       0.00          0          0          0
  veclendiving     :       0.00       0.00          0          0          0
  zeroobj          :       0.00       0.00          0          0          0
  zirounding       :       0.00       0.00          1          0          0
  other solutions  :          -          -          -          0          -
LP                 :       Time      Calls Iterations  Iter/call   Iter/sec  Time-0-It Calls-0-It    ItLimit
  primal LP        :       0.00          0          0       0.00          -       0.00          0
  dual LP          :       0.75         12        965      80.42    1282.02       0.00          0
  lex dual LP      :       0.00          0          0       0.00          -
  barrier LP       :       0.00          0          0       0.00          -       0.00          0
  resolve instable :       0.00          0          0       0.00          -
  diving/probing LP:       0.64         22        973      44.23    1527.18
  strong branching :       0.00          0          0       0.00          -          -          -          0
    (at root node) :          -          0          0       0.00          -
  conflict analysis:       0.00          0          0       0.00          -
B&B Tree           :
  number of runs   :          1
  nodes            :          1 (0 internal, 1 leaves)
  feasible leaves  :          0
  infeas. leaves   :          0
  objective leaves :          1
  nodes (total)    :          1 (0 internal, 1 leaves)
  nodes left       :          0
  max depth        :          0
  max depth (total):          0
  backtracks       :          0 (0.0%)
  early backtracks :          0 (0.0%)
  nodes exc. ref.  :          0 (0.0%)
  delayed cutoffs  :          0
  repropagations   :          0 (0 domain reductions, 0 cutoffs)
  avg switch length:       2.00
  switching time   :       0.00
Root Node          :
  First LP value   : +4.83344677694000e+01
  First LP Iters   :        681 (1519.85 Iter/sec)
  First LP Time    :       0.45
  Final Dual Bound : +4.83344677694000e+01
  Final Root Iters :       1897
  Root LP Estimate :                     -
Solution           :
  Solutions found  :          1 (1 improvements)
  First Solution   : +4.83344677694000e+01   (in run 1, after 1 nodes, 20.49 seconds, depth 3, found by <farkasdiving>)
  Gap First Sol.   :       0.00 %
  Gap Last Sol.    :       0.00 %
  Primal Bound     : +4.83344677694000e+01   (in run 1, after 1 nodes, 20.49 seconds, depth 3, found by <farkasdiving>)
  Dual Bound       : +4.83344677694000e+01
  Gap              :       0.00 %
Integrals          :      Total       Avg%
  primal-dual      :    2050.21      99.92
  primal-ref       :          -          - (not evaluated)
  dual-ref         :          -          - (not evaluated)
written solution information to file <results/final_miplib_symretope_if_extended_generating_set_cpx_v802__settings_final_nosym_norestarts__1__neos-3759587-noosa.mps.gz.sol>
@04 1686649818
